set VV := 0 1 2 3 4 5 6 7 8 9 ;
set VS := 0 1 2 3 4 5 6 7 8 9 10 11 12 13 14 15 16 17 18 19 20 21 22 23 24 ;
param cv := 
0 20
1 17
2 17
3 19
4 23
5 20
6 19
7 25
8 12
9 25
;
param cs := 
0 37
1 33
2 35
3 35
4 26
5 26
6 37
7 32
8 32
9 20
10 40
11 26
12 35
13 38
14 36
15 33
16 24
17 37
18 35
19 22
20 36
21 40
22 36
23 20
24 29
;
param bv:	 0 1 2 3 4 5 6 7 8 9 := 
		0 0 0 0 14 0 0 0 0 21 0 
		1 0 0 19 0 18 22 25 17 0 0 
		2 0 0 0 24 0 0 0 0 0 0 
		3 0 0 0 0 24 0 19 0 0 20 
		4 0 0 0 0 0 0 0 0 11 0 
		5 0 0 0 0 0 0 12 0 0 0 
		6 0 0 0 0 0 0 0 0 0 16 
		7 0 0 0 0 0 0 0 0 14 0 
		8 0 0 0 0 0 0 0 0 0 0 
		9 0 0 0 0 0 0 0 0 0 0 
;
param bs:	 0 1 2 3 4 5 6 7 8 9 10 11 12 13 14 15 16 17 18 19 20 21 22 23 24 := 
		0 0 0 27 0 0 0 0 0 0 0 0 0 0 0 0 0 38 0 0 0 0 0 0 0 0 
		1 0 0 0 0 0 0 27 0 0 0 0 0 24 20 29 0 0 0 23 0 0 0 0 0 0 
		2 27 0 0 0 0 0 24 20 0 0 0 0 39 0 0 0 0 0 0 0 0 0 0 0 0 
		3 0 0 0 0 0 0 29 0 0 0 0 0 0 0 0 0 0 21 0 40 22 0 40 33 0 
		4 0 0 0 0 0 0 0 0 27 0 0 0 0 28 0 29 0 0 0 0 0 0 0 0 0 
		5 0 0 0 0 0 0 0 0 27 0 0 0 0 0 0 0 0 0 0 0 0 0 0 0 0 
		6 0 27 24 29 0 0 0 0 0 0 37 0 0 0 0 0 0 0 27 0 0 40 0 0 0 
		7 0 0 20 0 0 0 0 0 0 0 0 0 0 0 0 23 0 0 28 0 0 0 0 0 0 
		8 0 0 0 0 27 27 0 0 0 20 0 0 0 0 0 0 0 0 0 0 0 0 0 0 20 
		9 0 0 0 0 0 0 0 0 20 0 0 0 0 26 31 0 30 0 0 31 0 0 0 0 0 
		10 0 0 0 0 0 0 37 0 0 0 0 0 0 0 0 0 0 0 0 0 0 0 0 0 0 
		11 0 0 0 0 0 0 0 0 0 0 0 0 0 24 0 0 0 22 0 0 0 0 0 0 0 
		12 0 24 39 0 0 0 0 0 0 0 0 0 0 0 0 0 0 0 29 0 0 0 0 0 0 
		13 0 20 0 0 28 0 0 0 0 26 0 24 0 0 0 0 0 0 0 34 0 27 0 0 0 
		14 0 29 0 0 0 0 0 0 0 31 0 0 0 0 0 0 0 0 0 0 0 0 0 0 0 
		15 0 0 0 0 29 0 0 23 0 0 0 0 0 0 0 0 0 0 0 0 0 0 0 0 0 
		16 38 0 0 0 0 0 0 0 0 30 0 0 0 0 0 0 0 0 30 32 0 0 0 0 0 
		17 0 0 0 21 0 0 0 0 0 0 0 22 0 0 0 0 0 0 0 0 27 0 0 0 0 
		18 0 23 0 0 0 0 27 28 0 0 0 0 29 0 0 0 30 0 0 0 0 20 0 0 0 
		19 0 0 0 40 0 0 0 0 0 31 0 0 0 34 0 0 32 0 0 0 0 0 0 0 0 
		20 0 0 0 22 0 0 0 0 0 0 0 0 0 0 0 0 0 27 0 0 0 0 0 0 0 
		21 0 0 0 0 0 0 40 0 0 0 0 0 0 27 0 0 0 0 20 0 0 0 0 0 36 
		22 0 0 0 40 0 0 0 0 0 0 0 0 0 0 0 0 0 0 0 0 0 0 0 0 0 
		23 0 0 0 33 0 0 0 0 0 0 0 0 0 0 0 0 0 0 0 0 0 0 0 0 30 
		24 0 0 0 0 0 0 0 0 20 0 0 0 0 0 0 0 0 0 0 0 0 36 0 30 0 
;
